50
    1     2    15
    2    10    14
    3    34    24
    4    24    45
    5    29    48
    6     7    37
    7    13    29
    8    45    43
    9    44    11
   10    14    28
   11     9     5
   12     7    33
   13     5    16
   14    22    34
   15    13    28
   16    26    28
   17    38    25
   18    32    40
   19    12    39
   20    39    30
   21    25     3
   22    31    23
   23    26    26
   24     8     4
   25    23    40
   26    34    16
   27    42     8
   28    21     5
   29     2     3
   30     8    45
   31    33    43
   32    34    13
   33    20    17
   34    21    13
   35     1    48
   36    39    13
   37     5    24
   38     7    48
   39    26    50
   40    17    34
   41    10    23
   42    21     7
   43    25     6
   44    33    45
   45    20    35
   46    41    44
   47     6    13
   48    48    29
   49    44    45
   50    21     2
1080
